22      4       
16      13      15      15      
0       0       0       0       0       3       2       3       4       
7       10      0       3       7       1       10      
7       0       0       0       5       3       5       7       11      
6       3       0       9       8       3       6       15      16      
8       0       4       1       0       3       9       12      15      
8       9       0       0       2       2       11      13      
5       3       9       0       0       1       8       
5       8       0       0       0       2       14      17      
6       0       2       0       0       1       17      
2       3       0       8       2       1       13      
6       0       6       0       0       1       19      
7       0       8       1       0       1       13      
5       0       0       0       2       3       18      19      21      
8       8       0       0       0       1       20      
1       5       1       0       6       1       18      
8       0       0       7       0       1       19      
4       0       4       3       9       1       18      
3       6       0       10      4       1       20      
7       8       0       0       3       1       22      
1       0       1       1       2       1       22      
8       8       0       10      8       1       22      
0       0       0       0       0       0       